Minimize
  - 5 y_0 - 8 y_1 - 9 y_2 - 3 y_3 - 8 y_4 - 10 y_5 - y_6 - 9 y_8 - 13 y_9
   + 41 x_0_5 + 70 x_0_9 + 58 x_1_2 + 43 x_1_3 + 26 x_1_6 + 36 x_2_6
   + 40 x_3_4 + 73 x_4_9 + 42 x_5_7 + 55 x_5_8 + 69 x_5_9 + 31 x_6_8
   + 37 x_7_8 + 51 x_7_9 + 66 Constant
Subject To
 c_0: y_9 = 1
 c_1_0: y_0 >= 1
 c_1_1: y_1 >= 1
 c_1_2: y_2 >= 1
 c_1_3: y_3 >= 1
 c_1_4: y_4 >= 1
 c_1_5: y_5 >= 1
 c_1_6: y_6 >= 1
 c_1_7: y_7 >= 1
 c_1_8: y_8 >= 1
 c_1_9: y_9 >= 1
 c_2_0: - 2 y_0 + x_0_5 + x_0_9 = 0
 c_2_1: - 2 y_1 + x_1_2 + x_1_3 + x_1_6 = 0
 c_2_2: - 2 y_2 + x_1_2 + x_2_6 = 0
 c_2_3: - 2 y_3 + x_1_3 + x_3_4 = 0
 c_2_4: - 2 y_4 + x_3_4 + x_4_9 = 0
 c_2_5: - 2 y_5 + x_0_5 + x_5_7 + x_5_8 + x_5_9 = 0
 c_2_6: - 2 y_6 + x_1_6 + x_2_6 + x_6_8 = 0
 c_2_7: - 2 y_7 + x_5_7 + x_7_8 + x_7_9 = 0
 c_2_8: - 2 y_8 + x_5_8 + x_6_8 + x_7_8 = 0
 c_2_9: - 2 y_9 + x_0_9 + x_4_9 + x_5_9 + x_7_9 = 0
Bounds
 Constant = 1
Binaries
 y_0 y_1 y_2 y_3 y_4 y_5 y_6 y_7 y_8 y_9 x_0_5 x_0_9 x_1_2 x_1_3 x_1_6
 x_2_6 x_3_4 x_4_9 x_5_7 x_5_8 x_5_9 x_6_8 x_7_8 x_7_9
End
